# Components (V)
1 2 3 4 5 6 7 8 9 10 11 12 13 14 15 16 17 18 19 20 21 22 23 24 25 26 27 28 29 30 31 32 33 34 35 36 37 38 39 40 41 42 43 44 45 46 47 48 49 50 51 52 53 54 55 56 57 58 59 60 61 62 63 64 65 66 67 68 69 70 71 72 73 74 75 76 77 78 79 80 81 82 83 84 85 86 87 88 89 90 91 92 93 94 95 96 97 98 99 100 101 102 103 104 105 106 107 108 109 110 111 112 113 114 115 116

# Precedence arcs (E)
5 63
6 63
11 24
11 27
11 34
12 30
13 39
14 40
15 33
17 25
17 32
18 36
18 38
19 23
19 26
20 31
20 35
20 37
21 28
22 29
25 63
26 63
27 63
28 63
31 52
32 45
32 60
33 42
33 49
33 53
33 54
33 99
34 41
34 51
34 59
35 57
36 43
37 46
37 48
37 56
38 47
38 50
38 58
39 44
39 55
43 63
46 62
47 61
47 65
47 76
49 69
53 66
53 74
54 73
55 71
56 67
57 72
59 68
59 70
60 64
60 75
63 78
63 79
63 80
63 81
63 82
63 83
67 90
68 88
68 92
68 95
68 96
69 91
70 86
70 98
71 84
71 93
71 94
72 87
72 97
73 85
75 77
76 89
78 101
78 109
80 111
81 112
81 116
85 102
87 103
89 115
90 104
90 105
90 106
92 113
94 100
94 110
94 114
97 107
98 99
98 108

# Target components (T)
103

# Revenues (r)
1 29
2 26
3 25
4 24
5 29
6 30
7 24
8 23
9 26
10 28
11 25
12 24
13 25
14 30
15 20
16 28
17 26
18 24
19 29
20 27
21 28
22 26
23 28
24 25
25 28
26 20
27 23
28 28
29 29
30 30
31 23
32 29
33 28
34 22
35 26
36 29
37 26
38 26
39 27
40 25
41 21
42 27
43 22
44 22
45 27
46 27
47 20
48 26
49 24
50 29
51 24
52 29
53 22
54 23
55 26
56 28
57 22
58 29
59 26
60 27
61 25
62 28
63 30
64 22
65 24
66 20
67 28
68 30
69 20
70 26
71 20
72 26
73 25
74 23
75 21
76 24
77 27
78 25
79 29
80 26
81 22
82 27
83 24
84 21
85 28
86 24
87 28
88 21
89 27
90 28
91 27
92 20
93 28
94 25
95 30
96 26
97 28
98 26
99 21
100 23
101 30
102 30
103 21
104 23
105 24
106 27
107 21
108 27
109 23
110 27
111 24
112 24
113 22
114 20
115 30
116 25

# Costs (c)
1 7
2 6
3 4
4 9
5 7
6 6
7 7
8 3
9 9
10 4
11 5
12 6
13 7
14 10
15 5
16 9
17 3
18 4
19 5
20 3
21 2
22 10
23 4
24 6
25 4
26 5
27 4
28 10
29 4
30 1
31 3
32 3
33 5
34 7
35 3
36 4
37 10
38 10
39 2
40 7
41 2
42 3
43 10
44 1
45 6
46 7
47 6
48 3
49 6
50 6
51 3
52 8
53 8
54 5
55 6
56 10
57 5
58 9
59 8
60 10
61 4
62 5
63 10
64 4
65 3
66 7
67 10
68 4
69 3
70 9
71 4
72 3
73 6
74 3
75 8
76 2
77 8
78 8
79 2
80 10
81 2
82 7
83 10
84 10
85 6
86 7
87 6
88 8
89 10
90 2
91 10
92 9
93 6
94 4
95 10
96 3
97 9
98 3
99 1
100 7
101 8
102 1
103 9
104 2
105 1
106 4
107 8
108 7
109 9
110 9
111 2
112 6
113 10
114 7
115 1
116 1

# Durations (p)
1 212
2 173
3 219
4 293
5 211
6 156
7 68
8 197
9 226
10 115
11 52
12 251
13 158
14 22
15 266
16 161
17 149
18 202
19 34
20 54
21 105
22 94
23 29
24 195
25 208
26 270
27 237
28 124
29 279
30 96
31 255
32 159
33 147
34 120
35 131
36 81
37 118
38 26
39 104
40 235
41 158
42 53
43 53
44 89
45 167
46 219
47 146
48 75
49 27
50 144
51 86
52 154
53 228
54 52
55 81
56 55
57 217
58 201
59 66
60 278
61 75
62 151
63 150
64 171
65 180
66 139
67 118
68 56
69 153
70 165
71 92
72 38
73 78
74 66
75 60
76 86
77 85
78 253
79 65
80 25
81 243
82 46
83 118
84 63
85 113
86 131
87 37
88 330
89 217
90 141
91 94
92 101
93 180
94 100
95 252
96 26
97 163
98 82
99 138
100 255
101 95
102 194
103 117
104 124
105 231
106 158
107 51
108 51
109 127
110 46
111 46
112 88
113 188
114 113
115 259
116 55

orderrules
5 63 au004 avant au062
6 63 au005 avant au062
11 24 au010 avant au023
11 27 au010 avant au026
11 34 au010 avant au033
12 30 au011 avant au029
13 39 au012 avant au038
14 40 au013 avant au039
15 33 au014 avant au032
17 25 au016 avant au024
17 32 au016 avant au031
18 36 au017 avant au035
18 38 au017 avant au037
19 23 au018 avant au022
19 26 au018 avant au025
20 31 au019 avant au030
20 35 au019 avant au034
20 37 au019 avant au036
21 28 au020 avant au027
22 29 au021 avant au028
25 63 au024 avant au062
26 63 au025 avant au062
27 63 au026 avant au062
28 63 au027 avant au062
31 52 au030 avant au051
32 45 au031 avant au044
32 60 au031 avant au059
33 42 au032 avant au041
33 49 au032 avant au048
33 53 au032 avant au052
33 54 au032 avant au053
33 99 au032 avant au098
34 41 au033 avant au040
34 51 au033 avant au050
34 59 au033 avant au058
35 57 au034 avant au056
36 43 au035 avant au042
37 46 au036 avant au045
37 48 au036 avant au047
37 56 au036 avant au055
38 47 au037 avant au046
38 50 au037 avant au049
38 58 au037 avant au057
39 44 au038 avant au043
39 55 au038 avant au054
43 63 au042 avant au062
46 62 au045 avant au061
47 61 au046 avant au060
47 65 au046 avant au064
47 76 au046 avant au075
49 69 au048 avant au068
53 66 au052 avant au065
53 74 au052 avant au073
54 73 au053 avant au072
55 71 au054 avant au070
56 67 au055 avant au066
57 72 au056 avant au071
59 68 au058 avant au067
59 70 au058 avant au069
60 64 au059 avant au063
60 75 au059 avant au074
63 78 au062 avant au077
63 79 au062 avant au078
63 80 au062 avant au079
63 81 au062 avant au080
63 82 au062 avant au081
63 83 au062 avant au082
67 90 au066 avant au089
68 88 au067 avant au087
68 92 au067 avant au091
68 95 au067 avant au094
68 96 au067 avant au095
69 91 au068 avant au090
70 86 au069 avant au085
70 98 au069 avant au097
71 84 au070 avant au083
71 93 au070 avant au092
71 94 au070 avant au093
72 87 au071 avant au086
72 97 au071 avant au096
73 85 au072 avant au084
75 77 au074 avant au076
76 89 au075 avant au088
78 101 au077 avant au100
78 109 au077 avant au108
80 111 au079 avant au110
81 112 au080 avant au111
81 116 au080 avant au115
85 102 au084 avant au101
87 103 au086 avant au102
89 115 au088 avant au114
90 104 au089 avant au103
90 105 au089 avant au104
90 106 au089 avant au105
92 113 au091 avant au112
94 100 au093 avant au099
94 110 au093 avant au109
94 114 au093 avant au113
97 107 au096 avant au106
98 99 au097 avant au098
98 108 au097 avant au107
